(set-logic HORN)
(declare-fun inv ((_ BitVec 64) (_ BitVec 64) (_ BitVec 64) (_ BitVec 64) ) Bool)
(assert (forall ((n (_ BitVec 64)) (x (_ BitVec 64)) (y (_ BitVec 64)) (z (_ BitVec 64))) 
       (=> ( and ( = n (_ bv0 64) ) ( = x (_ bv0 64) ) ( = y (_ bv1 64) ) ( = z (_ bv6 64) ) ) (inv n x y z))))
(assert (forall ((n (_ BitVec 64)) (x (_ BitVec 64)) (y (_ BitVec 64)) (z (_ BitVec 64)) (n! (_ BitVec 64)) (x! (_ BitVec 64)) (y! (_ BitVec 64)) (z! (_ BitVec 64))) 
       (=> (and (inv n x y z) ( and ( bvslt n (_ bv100 64) ) ( = n! ( bvadd n (_ bv1 64) ) ) ( = x! ( bvadd x y ) ) ( = y! ( bvadd y z ) ) ( = z! ( bvadd z (_ bv6 64) ) ) )) (inv n! x! y! z!))))
(assert (forall ((n (_ BitVec 64)) (x (_ BitVec 64)) (y (_ BitVec 64)) (z (_ BitVec 64))) 
       (=> (inv n x y z) ( or ( bvslt n (_ bv100 64) ) ( = x ( bvmul n n n ) ) ))))
(check-sat)
